SMT_examples/xor/check_xor.output.txt
unsat
sat
(
  (define-fun A () Bool
    true)
  (define-fun B () Bool
    true)
  (define-fun C () Bool
    true)
)
